StudentsNr = 10;
InstructorsNr = 21;
DaysNr = 2;
SlotsPerDay = 20;
AvailabilitySlotsLenght = 20;
RoomNr = 2;
ProgrammNr = 2;
DegreeNr = 3;
RolesNr = 3;
CoursesNr = 10;
InstructorsProgramm = [{2}, {1, 2}, {2}, {1}, {2}, {1}, {2}, {2}, {2}, {2}, {1, 2}, {2}, {1, 2}, {1}, {1, 2}, {1}, {2}, {1, 2}, {2}, {1}, {1}];
InstructorRolesPerProgramm = [|{4, 13, 14, 15, 21}, {4, 6, 13, 15, 16, 18, 20}, {2, 14, 16, 18, 21}|{3, 13, 15, 17}, {5, 7, 13, 15, 18}, {2, 3, 7, 8, 18, 19}|];
InstructorsAvailability = [|0, 1, |0, 1, |0, 0, |0, 1, |1, 1, |0, 1, |1, 1, |1, 1, |0, 0, |0, 0, |1, 1, |0, 0, |1, 1, |1, 0, |0, 1, |0, 0, |1, 1, |1, 0, |0, 1, |1, 1, |0, 1|];
StudentsProgramm = [2, 1, 2, 1, 2, 1, 1, 2, 1, 2];
StudentsDegree = [1, 1, 1, 1, 1, 1, 2, 3, 2, 2];
StudentsSupervisorId = [2, 2, 12, 11, 19, 11, 6, 3, 6, 15];
StudentsCourseIds = [{2, 3, 5, 6, 7, 9}, {3, 5, 6, 7, 8, 10}, {1, 3, 4, 5, 8, 10}, {2, 4, 5, 7, 8, 9}, {3, 4, 5, 8, 9, 10}, {1, 2, 3, 4, 5, 10}, {1, 4, 5, 6, 7, 9, 10}, {1, 2, 3, 4, 5, 6, 7, 8, 9, 10}, {1, 2, 4, 5, 6, 9, 10}, {2, 3, 4, 5, 8, 9, 10}];
StudentsAvailability = [|0, 1, |0, 0, |1, 1, |0, 1, |1, 1, |0, 1, |1, 0, |0, 0, |1, 1, |0, 0|];
TheoryticalMinCard = [0, 0, 0, 1, 0, 2, 0, 0, 1, 0];
CoursesInstructorIds = [{1, 2, 3, 4, 5, 14, 17, 18}, {8}, {5, 7, 10, 12, 15, 18, 20}, {5, 6, 18, 21}, {1, 3, 7, 9, 16, 18, 19}, {1, 4, 7, 9, 13, 14, 16, 17, 18, 19, 20, 21}, {1, 5, 7, 12, 14, 15, 16, 17, 18, 19, 21}, {1, 2, 6, 10, 11, 13, 14, 15, 16, 17, 19, 20, 21}, {1, 2, 3, 4, 5, 6, 7, 8, 9, 13, 16, 17, 18, 21}, {9, 13, 19, 20}];
RolesDemands = [4, 4, 5];
RolesContinuity = [3, 1];
ExamLen = [2, 2, 2, 2, 2, 2, 1, 1, 1, 1];
LunchTsMinLen = 1;
LunchStarts = [7..12, 25..32];
SupervisorAvailable = 5;
OptimalLunchLenght = [1, 1];
OptimalStartTs = [2, 0];
OptimalFinishTs = [0, 20];
MinimizeRooms = 0;
RolesSoftContinuity = [|1, 2, 3|3, 2, 3|];
SameDegreeInRoom = 0;
Mergeability = 0;
